Route 1: 0 84 51 23 76 7 64 70 29 19 0
Route 2: 0 1 55 90 67 8 31 27 89 0
Route 3: 0 83 10 41 40 92 48 47 74 14 46 13 25 0
Route 4: 0 18 11 62 58 32 5 0
Route 5: 0 71 99 52 82 81 3 21 2 36 0
Route 6: 0 39 79 77 15 42 65 98 0
Route 7: 0 53 93 43 50 22 85 38 0
Route 8: 0 37 44 78 75 16 6 88 57 0
Route 9: 0 24 69 95 60 4 97 0
Route 10: 0 59 80 49 54 33 96 35 94 0
Route 11: 0 72 68 87 26 56 45 9 30 86 61 0
Route 12: 0 17 100 28 91 73 12 20 0
Route 13: 0 63 66 34 0
